1312983
0,4,34,97,100,81,44,33,51,28,15,106,93,45,80,1,50,83,58,31,94,42,84,60,5,29,102,55,91,73,22,14,63,21,52,16,79,47,20,99,101,53,57,103,96,88,90,10,48,71,56,74,85,26,68,69,13,7,35,27,39,67,54,11,64,87,6,17,41,59,105,107,77,32,12,92,95,18,49,75,72,61,86,104,98,70,46,38,30,40,37,25,36,8,65,76,9,108,23,89,66,3,78,43,19,62,2,82,24,0